(set-info :source |printed by MathSAT|)
(declare-fun |.x{1}| () Int)
(declare-fun |.x{526}| () Int)
(declare-fun |.x{35}| () (Array Int Int))
(declare-fun |.x{527}| () (Array Int Int))
(declare-fun |.x{3}| () (Array Int Int))
(declare-fun |.x{528}| () (Array Int Int))
(declare-fun |.x{4}| () (Array Int (Array Int Int)))
(declare-fun |.x{529}| () (Array Int (Array Int Int)))
(declare-fun |.x{5}| () (Array Int (Array Int Int)))
(declare-fun |.x{530}| () (Array Int (Array Int Int)))
(declare-fun |.x{39}| () Int)
(declare-fun |.x{531}| () Int)
(declare-fun |.x{7}| () Int)
(declare-fun |.x{532}| () Int)
(declare-fun |.x{8}| () (Array Int Int))
(declare-fun |.x{533}| () (Array Int Int))
(declare-fun |.x{9}| () (Array Int Int))
(declare-fun |.x{534}| () (Array Int Int))
(declare-fun |.x{43}| () Int)
(declare-fun |.x{535}| () Int)
(declare-fun |.x{11}| () Int)
(declare-fun |.x{536}| () Int)
(declare-fun |.x{12}| () Int)
(declare-fun |.x{537}| () Int)
(declare-fun |.x{13}| () Int)
(declare-fun |.x{538}| () Int)
(declare-fun |.x{14}| () Int)
(declare-fun |.x{539}| () Int)
(declare-fun |.x{15}| () Int)
(declare-fun |.x{540}| () Int)
(declare-fun |.x{16}| () Int)
(declare-fun |.x{541}| () Int)
(declare-fun |.x{17}| () Int)
(declare-fun |.x{542}| () Int)
(declare-fun |.x{18}| () Int)
(declare-fun |.x{543}| () Int)
(declare-fun |.x{19}| () Int)
(declare-fun |.x{544}| () Int)
(declare-fun |.x{20}| () Int)
(declare-fun |.x{545}| () Int)
(declare-fun |.x{21}| () Int)
(declare-fun |.x{546}| () Int)
(declare-fun |.x{22}| () Int)
(declare-fun |.x{547}| () Int)
(declare-fun |.x{23}| () Int)
(declare-fun |.x{548}| () Int)
(declare-fun |.x{24}| () Int)
(declare-fun |.x{549}| () Int)
(declare-fun |.x{25}| () Int)
(declare-fun |.x{550}| () Int)
(declare-fun |.x{26}| () Int)
(declare-fun |.x{551}| () Int)
(declare-fun |.x{27}| () Int)
(declare-fun |.x{552}| () Int)
(declare-fun |.x{28}| () Int)
(declare-fun |.x{553}| () Int)
(declare-fun |.x{29}| () Int)
(declare-fun |.x{554}| () Int)
(declare-fun |.x{30}| () Int)
(declare-fun |.x{555}| () Int)
(declare-fun |.x{31}| () Int)
(declare-fun |.x{556}| () Int)
(declare-fun |.x{32}| () Int)
(declare-fun |.x{557}| () Int)
(declare-fun |.x{33}| () Bool)
(declare-fun |.x{492}| () Bool)
(declare-fun |.loc{3}| () Bool)
(declare-fun |.loc{5}| () Bool)
(declare-fun |.loc{4}| () Bool)
(declare-fun |.loc{6}| () Bool)
(declare-fun |.x{131}| () (Array Int Int))
(declare-fun |.x{328}| () Int)
(declare-fun |.x{428}| () Int)
(declare-fun |.x{430}| () Int)
(declare-fun |.x{424}| () Int)
(declare-fun |.x{402}| () (Array Int Int))
(declare-fun |.x{426}| () Int)
(define-fun .def_76 () Bool (! |.loc{4}| :next |.loc{6}|))
(define-fun .def_321 () Bool (not .def_76))
(define-fun .def_74 () Bool (! |.loc{3}| :next |.loc{5}|))
(define-fun .def_89 () Bool (not .def_74))
(define-fun .def_346 () Bool (and .def_89 .def_321))
(define-fun .def_28 () Int (! |.x{11}| :next |.x{536}|))
(define-fun .def_26 () Int (! |.x{43}| :next |.x{535}|))
(define-fun .def_340 () Bool (= .def_26 .def_28))
(define-fun .def_16 () (Array Int (Array Int Int)) (! |.x{5}| :next |.x{530}|))
(define-fun .def_14 () (Array Int (Array Int Int)) (! |.x{4}| :next |.x{529}|))
(define-fun .def_339 () Bool (= .def_14 .def_16))
(define-fun .def_341 () Bool (and .def_339 .def_340))
(define-fun .def_20 () Int (! |.x{7}| :next |.x{532}|))
(define-fun .def_18 () Int (! |.x{39}| :next |.x{531}|))
(define-fun .def_338 () Bool (= .def_18 .def_20))
(define-fun .def_342 () Bool (and .def_338 .def_341))
(define-fun .def_24 () (Array Int Int) (! |.x{9}| :next |.x{534}|))
(define-fun .def_22 () (Array Int Int) (! |.x{8}| :next |.x{533}|))
(define-fun .def_337 () Bool (= .def_22 .def_24))
(define-fun .def_343 () Bool (and .def_337 .def_342))
(define-fun .def_72 () Bool (! |.x{33}| :next |.x{492}|))
(define-fun .def_336 () Bool (not .def_72))
(define-fun .def_344 () Bool (and .def_336 .def_343))
(define-fun .def_12 () (Array Int Int) (! |.x{3}| :next |.x{528}|))
(define-fun .def_10 () (Array Int Int) (! |.x{35}| :next |.x{527}|))
(define-fun .def_335 () Bool (= .def_10 .def_12))
(define-fun .def_345 () Bool (and .def_335 .def_344))
(define-fun .def_347 () Bool (! (and .def_345 .def_346) :init true))
(define-fun .def_332 () Bool (= .def_28 |.x{536}|))
(define-fun .def_330 () Bool (= .def_24 |.x{534}|))
(define-fun .def_328 () Bool (= .def_20 |.x{532}|))
(define-fun .def_326 () Bool (= .def_16 |.x{530}|))
(define-fun .def_324 () Bool (= .def_12 |.x{528}|))
(define-fun .def_8 () Int (! |.x{1}| :next |.x{526}|))
(define-fun .def_322 () Bool (= .def_8 |.x{526}|))
(define-fun .def_323 () Bool (and .def_321 .def_322))
(define-fun .def_325 () Bool (and .def_323 .def_324))
(define-fun .def_327 () Bool (and .def_325 .def_326))
(define-fun .def_329 () Bool (and .def_327 .def_328))
(define-fun .def_331 () Bool (and .def_329 .def_330))
(define-fun .def_333 () Bool (and .def_331 .def_332))
(define-fun .def_317 () Bool (not |.loc{5}|))
(define-fun .def_309 () Int (select |.x{131}| |.x{549}|))
(define-fun .def_310 () Bool (= .def_309 0))
(define-fun .def_304 () Bool (= |.x{555}| 0))
(define-fun .def_300 () Bool (= |.x{549}| 0))
(define-fun .def_301 () Bool (not .def_300))
(define-fun .def_298 () Bool (= |.x{537}| |.x{539}|))
(define-fun .def_294 () Bool (= |.x{553}| 0))
(define-fun .def_295 () Bool (not .def_294))
(define-fun .def_290 () Bool (= |.x{538}| |.x{553}|))
(define-fun .def_288 () Bool (= |.x{539}| 0))
(define-fun .def_276 () (Array Int Int) (store |.x{131}| |.x{549}| 1))
(define-fun .def_283 () (Array Int Int) (store .def_276 |.x{553}| 1))
(define-fun .def_284 () Bool (= |.x{527}| .def_283))
(define-fun .def_280 () Bool (= |.x{545}| |.x{555}|))
(define-fun .def_277 () Int (select .def_276 |.x{553}|))
(define-fun .def_278 () Bool (= .def_277 0))
(define-fun .def_273 () Bool (= |.x{549}| |.x{552}|))
(define-fun .def_104 () Bool (= |.x{545}| |.x{556}|))
(define-fun .def_274 () Bool (and .def_104 .def_273))
(define-fun .def_106 () Bool (= |.x{540}| |.x{556}|))
(define-fun .def_275 () Bool (and .def_106 .def_274))
(define-fun .def_279 () Bool (and .def_275 .def_278))
(define-fun .def_281 () Bool (and .def_279 .def_280))
(define-fun .def_114 () Bool (= |.x{537}| |.x{554}|))
(define-fun .def_282 () Bool (and .def_114 .def_281))
(define-fun .def_285 () Bool (and .def_282 .def_284))
(define-fun .def_270 () (Array Int Int) (store .def_22 |.x{549}| 4))
(define-fun .def_271 () (Array Int Int) (store .def_270 |.x{553}| 4))
(define-fun .def_272 () Bool (= |.x{533}| .def_271))
(define-fun .def_286 () Bool (and .def_272 .def_285))
(define-fun .def_125 () Bool (= |.x{538}| |.x{542}|))
(define-fun .def_287 () Bool (and .def_125 .def_286))
(define-fun .def_289 () Bool (and .def_287 .def_288))
(define-fun .def_291 () Bool (and .def_289 .def_290))
(define-fun .def_130 () Bool (= |.x{542}| |.x{557}|))
(define-fun .def_292 () Bool (and .def_130 .def_291))
(define-fun .def_268 () Bool (<= |.x{526}| |.x{553}|))
(define-fun .def_269 () Bool (not .def_268))
(define-fun .def_293 () Bool (and .def_269 .def_292))
(define-fun .def_296 () Bool (and .def_293 .def_295))
(define-fun .def_139 () Bool (= |.x{540}| |.x{543}|))
(define-fun .def_138 () Bool (= |.x{547}| |.x{557}|))
(define-fun .def_140 () Bool (and .def_138 .def_139))
(define-fun .def_141 () Int (ite .def_140 1 0))
(define-fun .def_142 () Bool (= |.x{544}| .def_141))
(define-fun .def_297 () Bool (and .def_142 .def_296))
(define-fun .def_299 () Bool (and .def_297 .def_298))
(define-fun .def_302 () Bool (and .def_299 .def_301))
(define-fun .def_148 () Bool (= |.x{543}| |.x{554}|))
(define-fun .def_303 () Bool (and .def_148 .def_302))
(define-fun .def_305 () Bool (and .def_303 .def_304))
(define-fun .def_152 () Bool (= |.x{541}| |.x{552}|))
(define-fun .def_306 () Bool (and .def_152 .def_305))
(define-fun .def_154 () Bool (= |.x{541}| |.x{547}|))
(define-fun .def_307 () Bool (and .def_154 .def_306))
(define-fun .def_266 () Bool (<= |.x{526}| |.x{549}|))
(define-fun .def_267 () Bool (not .def_266))
(define-fun .def_308 () Bool (and .def_267 .def_307))
(define-fun .def_311 () Bool (and .def_308 .def_310))
(define-fun .def_312 () Bool (or .def_72 .def_311))
(define-fun .def_127 () Bool (= |.x{328}| 0))
(define-fun .def_260 () Bool (not .def_127))
(define-fun .def_261 () Bool (or .def_72 .def_260))
(define-fun .def_251 () (Array Int Int) (select .def_14 |.x{549}|))
(define-fun .def_252 () (Array Int Int) (store .def_251 |.x{539}| |.x{544}|))
(define-fun .def_253 () (Array Int (Array Int Int)) (store .def_14 |.x{549}| .def_252))
(define-fun .def_254 () Bool (= |.x{529}| .def_253))
(define-fun .def_184 () (Array Int Int) (select |.x{529}| |.x{552}|))
(define-fun .def_185 () Int (select .def_184 |.x{537}|))
(define-fun .def_250 () Bool (= |.x{328}| .def_185))
(define-fun .def_255 () Bool (and .def_250 .def_254))
(define-fun .def_189 () Bool (<= (- 2147483648) |.x{544}|))
(define-fun .def_256 () Bool (and .def_189 .def_255))
(define-fun .def_192 () Bool (<= |.x{544}| 2147483647))
(define-fun .def_257 () Bool (and .def_192 .def_256))
(define-fun .def_258 () Bool (or .def_72 .def_257))
(define-fun .def_259 () Bool (and |.x{492}| .def_258))
(define-fun .def_262 () Bool (and .def_259 .def_261))
(define-fun .def_263 () Bool (and .def_89 .def_262))
(define-fun .def_84 () (Array Int Int) (store .def_10 0 0))
(define-fun .def_85 () Bool (= |.x{131}| .def_84))
(define-fun .def_81 () Bool (= |.x{531}| 0))
(define-fun .def_80 () Bool (= |.x{535}| 0))
(define-fun .def_82 () Bool (and .def_80 .def_81))
(define-fun .def_86 () Bool (and .def_82 .def_85))
(define-fun .def_87 () Bool (or .def_72 .def_86))
(define-fun .def_264 () Bool (and .def_87 .def_263))
(define-fun .def_265 () Bool (and .def_87 .def_264))
(define-fun .def_313 () Bool (and .def_265 .def_312))
(define-fun .def_48 () Int (! |.x{21}| :next |.x{546}|))
(define-fun .def_92 () Bool (= .def_48 |.x{546}|))
(define-fun .def_314 () Bool (and .def_92 .def_313))
(define-fun .def_56 () Int (! |.x{25}| :next |.x{550}|))
(define-fun .def_247 () Bool (= |.x{546}| .def_56))
(define-fun .def_248 () Bool (or .def_72 .def_247))
(define-fun .def_245 () Bool (= .def_10 |.x{527}|))
(define-fun .def_243 () Bool (= .def_14 |.x{529}|))
(define-fun .def_241 () Bool (= .def_18 |.x{531}|))
(define-fun .def_239 () Bool (= .def_22 |.x{533}|))
(define-fun .def_237 () Bool (= .def_26 |.x{535}|))
(define-fun .def_30 () Int (! |.x{12}| :next |.x{537}|))
(define-fun .def_235 () Bool (= .def_30 |.x{537}|))
(define-fun .def_32 () Int (! |.x{13}| :next |.x{538}|))
(define-fun .def_233 () Bool (= .def_32 |.x{538}|))
(define-fun .def_34 () Int (! |.x{14}| :next |.x{539}|))
(define-fun .def_231 () Bool (= .def_34 |.x{539}|))
(define-fun .def_36 () Int (! |.x{15}| :next |.x{540}|))
(define-fun .def_229 () Bool (= .def_36 |.x{540}|))
(define-fun .def_38 () Int (! |.x{16}| :next |.x{541}|))
(define-fun .def_227 () Bool (= .def_38 |.x{541}|))
(define-fun .def_40 () Int (! |.x{17}| :next |.x{542}|))
(define-fun .def_225 () Bool (= .def_40 |.x{542}|))
(define-fun .def_42 () Int (! |.x{18}| :next |.x{543}|))
(define-fun .def_223 () Bool (= .def_42 |.x{543}|))
(define-fun .def_44 () Int (! |.x{19}| :next |.x{544}|))
(define-fun .def_220 () Bool (= .def_44 |.x{544}|))
(define-fun .def_46 () Int (! |.x{20}| :next |.x{545}|))
(define-fun .def_218 () Bool (= .def_46 |.x{545}|))
(define-fun .def_50 () Int (! |.x{22}| :next |.x{547}|))
(define-fun .def_216 () Bool (= .def_50 |.x{547}|))
(define-fun .def_52 () Int (! |.x{23}| :next |.x{548}|))
(define-fun .def_214 () Bool (= .def_52 |.x{548}|))
(define-fun .def_54 () Int (! |.x{24}| :next |.x{549}|))
(define-fun .def_212 () Bool (= .def_54 |.x{549}|))
(define-fun .def_210 () Bool (= .def_56 |.x{550}|))
(define-fun .def_58 () Int (! |.x{26}| :next |.x{551}|))
(define-fun .def_208 () Bool (= .def_58 |.x{551}|))
(define-fun .def_60 () Int (! |.x{27}| :next |.x{552}|))
(define-fun .def_206 () Bool (= .def_60 |.x{552}|))
(define-fun .def_62 () Int (! |.x{28}| :next |.x{553}|))
(define-fun .def_204 () Bool (= .def_62 |.x{553}|))
(define-fun .def_64 () Int (! |.x{29}| :next |.x{554}|))
(define-fun .def_202 () Bool (= .def_64 |.x{554}|))
(define-fun .def_66 () Int (! |.x{30}| :next |.x{555}|))
(define-fun .def_200 () Bool (= .def_66 |.x{555}|))
(define-fun .def_68 () Int (! |.x{31}| :next |.x{556}|))
(define-fun .def_198 () Bool (= .def_68 |.x{556}|))
(define-fun .def_70 () Int (! |.x{32}| :next |.x{557}|))
(define-fun .def_196 () Bool (= .def_70 |.x{557}|))
(define-fun .def_163 () Bool (= .def_72 |.x{492}|))
(define-fun .def_197 () Bool (and .def_163 .def_196))
(define-fun .def_199 () Bool (and .def_197 .def_198))
(define-fun .def_201 () Bool (and .def_199 .def_200))
(define-fun .def_203 () Bool (and .def_201 .def_202))
(define-fun .def_205 () Bool (and .def_203 .def_204))
(define-fun .def_207 () Bool (and .def_205 .def_206))
(define-fun .def_209 () Bool (and .def_207 .def_208))
(define-fun .def_211 () Bool (and .def_209 .def_210))
(define-fun .def_213 () Bool (and .def_211 .def_212))
(define-fun .def_215 () Bool (and .def_213 .def_214))
(define-fun .def_217 () Bool (and .def_215 .def_216))
(define-fun .def_219 () Bool (and .def_217 .def_218))
(define-fun .def_221 () Bool (and .def_219 .def_220))
(define-fun .def_222 () Bool (and .def_74 .def_221))
(define-fun .def_224 () Bool (and .def_222 .def_223))
(define-fun .def_226 () Bool (and .def_224 .def_225))
(define-fun .def_228 () Bool (and .def_226 .def_227))
(define-fun .def_230 () Bool (and .def_228 .def_229))
(define-fun .def_232 () Bool (and .def_230 .def_231))
(define-fun .def_234 () Bool (and .def_232 .def_233))
(define-fun .def_236 () Bool (and .def_234 .def_235))
(define-fun .def_238 () Bool (and .def_236 .def_237))
(define-fun .def_240 () Bool (and .def_238 .def_239))
(define-fun .def_242 () Bool (and .def_240 .def_241))
(define-fun .def_244 () Bool (and .def_242 .def_243))
(define-fun .def_246 () Bool (and .def_244 .def_245))
(define-fun .def_249 () Bool (and .def_246 .def_248))
(define-fun .def_315 () Bool (or .def_249 .def_314))
(define-fun .def_316 () Bool (and |.loc{6}| .def_315))
(define-fun .def_318 () Bool (and .def_316 .def_317))
(define-fun .def_186 () Bool (= |.x{426}| .def_185))
(define-fun .def_180 () (Array Int Int) (select .def_14 |.x{424}|))
(define-fun .def_181 () (Array Int Int) (store .def_180 |.x{328}| |.x{544}|))
(define-fun .def_182 () (Array Int (Array Int Int)) (store .def_14 |.x{424}| .def_181))
(define-fun .def_183 () Bool (= |.x{529}| .def_182))
(define-fun .def_187 () Bool (and .def_183 .def_186))
(define-fun .def_190 () Bool (and .def_187 .def_189))
(define-fun .def_193 () Bool (and .def_190 .def_192))
(define-fun .def_194 () Bool (or |.x{492}| .def_193))
(define-fun .def_176 () Bool (= |.x{426}| 0))
(define-fun .def_171 () (Array Int Int) (store |.x{402}| |.x{424}| 0))
(define-fun .def_172 () (Array Int Int) (store .def_171 |.x{428}| 0))
(define-fun .def_173 () Bool (= |.x{527}| .def_172))
(define-fun .def_170 () Bool (= |.x{550}| 0))
(define-fun .def_174 () Bool (and .def_170 .def_173))
(define-fun .def_177 () Bool (and .def_174 .def_176))
(define-fun .def_178 () Bool (or |.x{492}| .def_177))
(define-fun .def_159 () Int (select |.x{131}| |.x{424}|))
(define-fun .def_160 () Bool (= .def_159 0))
(define-fun .def_156 () Bool (<= |.x{526}| |.x{424}|))
(define-fun .def_157 () Bool (not .def_156))
(define-fun .def_150 () Bool (= |.x{430}| 0))
(define-fun .def_145 () Bool (= |.x{424}| 0))
(define-fun .def_146 () Bool (not .def_145))
(define-fun .def_135 () Bool (= |.x{428}| 0))
(define-fun .def_136 () Bool (not .def_135))
(define-fun .def_132 () Bool (<= |.x{526}| |.x{428}|))
(define-fun .def_133 () Bool (not .def_132))
(define-fun .def_121 () (Array Int Int) (store .def_22 |.x{424}| 4))
(define-fun .def_122 () (Array Int Int) (store .def_121 |.x{428}| 4))
(define-fun .def_123 () Bool (= |.x{533}| .def_122))
(define-fun .def_109 () (Array Int Int) (store |.x{131}| |.x{424}| 1))
(define-fun .def_116 () (Array Int Int) (store .def_109 |.x{428}| 1))
(define-fun .def_118 () Bool (= .def_116 |.x{402}|))
(define-fun .def_110 () Int (select .def_109 |.x{428}|))
(define-fun .def_111 () Bool (= .def_110 0))
(define-fun .def_103 () Bool (= |.x{552}| |.x{424}|))
(define-fun .def_105 () Bool (and .def_103 .def_104))
(define-fun .def_107 () Bool (and .def_105 .def_106))
(define-fun .def_112 () Bool (and .def_107 .def_111))
(define-fun .def_101 () Bool (= |.x{545}| |.x{430}|))
(define-fun .def_113 () Bool (and .def_101 .def_112))
(define-fun .def_115 () Bool (and .def_113 .def_114))
(define-fun .def_119 () Bool (and .def_115 .def_118))
(define-fun .def_124 () Bool (and .def_119 .def_123))
(define-fun .def_126 () Bool (and .def_124 .def_125))
(define-fun .def_128 () Bool (and .def_126 .def_127))
(define-fun .def_99 () Bool (= |.x{538}| |.x{428}|))
(define-fun .def_129 () Bool (and .def_99 .def_128))
(define-fun .def_131 () Bool (and .def_129 .def_130))
(define-fun .def_134 () Bool (and .def_131 .def_133))
(define-fun .def_137 () Bool (and .def_134 .def_136))
(define-fun .def_143 () Bool (and .def_137 .def_142))
(define-fun .def_97 () Bool (= |.x{537}| |.x{328}|))
(define-fun .def_144 () Bool (and .def_97 .def_143))
(define-fun .def_147 () Bool (and .def_144 .def_146))
(define-fun .def_149 () Bool (and .def_147 .def_148))
(define-fun .def_151 () Bool (and .def_149 .def_150))
(define-fun .def_153 () Bool (and .def_151 .def_152))
(define-fun .def_155 () Bool (and .def_153 .def_154))
(define-fun .def_158 () Bool (and .def_155 .def_157))
(define-fun .def_161 () Bool (and .def_158 .def_160))
(define-fun .def_162 () Bool (or |.x{492}| .def_161))
(define-fun .def_164 () Bool (and .def_162 .def_163))
(define-fun .def_165 () Bool (and .def_87 .def_164))
(define-fun .def_166 () Bool (and .def_89 .def_165))
(define-fun .def_167 () Bool (and |.loc{5}| .def_166))
(define-fun .def_168 () Bool (and .def_92 .def_167))
(define-fun .def_94 () Bool (not |.loc{6}|))
(define-fun .def_169 () Bool (and .def_94 .def_168))
(define-fun .def_179 () Bool (and .def_169 .def_178))
(define-fun .def_195 () Bool (and .def_179 .def_194))
(define-fun .def_319 () Bool (or .def_195 .def_318))
(define-fun .def_78 () Bool (and .def_72 |.x{492}|))
(define-fun .def_88 () Bool (and .def_78 .def_87))
(define-fun .def_90 () Bool (and .def_88 .def_89))
(define-fun .def_91 () Bool (and |.loc{5}| .def_90))
(define-fun .def_93 () Bool (and .def_91 .def_92))
(define-fun .def_95 () Bool (and .def_93 .def_94))
(define-fun .def_320 () Bool (or .def_95 .def_319))
(define-fun .def_334 () Bool (! (and .def_320 .def_333) :trans true))
(define-fun .def_348 () Bool (and .def_76 .def_89))
(define-fun .def_349 () Bool (and .def_72 .def_348))
(define-fun .def_350 () Bool (! (not .def_349) :invar-property 0))
(assert true)
